(set-logic QF_NRA)
(declare-fun y0 () Real)
(declare-fun cuscore0dollarsk_1 () Real)
(declare-fun buscore0dollarsk_2 () Real)
(declare-fun x0 () Real)
(declare-fun xuscore0dollarsk_0 () Real)
(assert (not (<= y0 0.0)))
(assert (not (<= cuscore0dollarsk_1 0.0)))
(assert (= (* cuscore0dollarsk_1 cuscore0dollarsk_1)
           (+ 1.0 (* buscore0dollarsk_2 buscore0dollarsk_2))))
(assert (= (* cuscore0dollarsk_1 cuscore0dollarsk_1)
           (+ (* x0 x0)
              (* (+ y0 (* (- 1.0) buscore0dollarsk_2))
                 (+ y0 (* (- 1.0) buscore0dollarsk_2))))))
(assert (= (* xuscore0dollarsk_0
              (+ y0 cuscore0dollarsk_1 (* (- 1.0) buscore0dollarsk_2)))
           (* x0 (+ cuscore0dollarsk_1 (* (- 1.0) buscore0dollarsk_2)))))
(assert (not (= x0 0.0)))
(assert (<= (* x0 x0)
            (* (+ x0 (* (- 1.0) xuscore0dollarsk_0))
               (+ x0 (* (- 1.0) xuscore0dollarsk_0)))))
(check-sat)
(exit)
